c description: Random 2-CNF over 15 variables and 65 clauses
c generator: CNFgen (0.9.0)
c copyright: (C) 2012-2020 Massimo Lauria <massimo.lauria@uniroma1.it>
c url: https://massimolauria.net/cnfgen
c
p cnf 15 65
-6 -7 0
-8 15 0
2 -8 0
10 14 0
-2 4 0
2 11 0
-4 9 0
-5 13 0
-5 -10 0
-7 15 0
-9 -12 0
-4 8 0
-13 15 0
12 -13 0
6 -7 0
5 8 0
5 -7 0
6 14 0
-7 11 0
-1 -5 0
3 9 0
4 13 0
4 8 0
-1 9 0
6 -9 0
4 10 0
2 5 0
13 14 0
-2 -4 0
-1 -13 0
6 -12 0
-4 12 0
9 -12 0
-7 -11 0
-4 -12 0
-6 8 0
12 -15 0
-11 -13 0
-7 9 0
-3 -8 0
1 5 0
2 -3 0
6 -13 0
3 4 0
-7 -13 0
-2 12 0
3 10 0
5 -10 0
-12 -13 0
-2 8 0
3 14 0
1 6 0
-12 15 0
-4 11 0
2 9 0
8 -9 0
3 -11 0
-1 -10 0
5 9 0
1 13 0
-13 14 0
8 11 0
4 -6 0
-5 9 0
-3 7 0